#######################
Slurm job id: 17497813_287
Running on machine: p32
Running cmd: /nfs/shared/static-builds/gurobi1202 SOFTMEMLIMIT=125 MIPFocus=1 Presolve=1 TimeLimit=300 seed=6 /nfs/models/miplib2010/k16x240.mps.bz2
#######################
Set parameter TimeLimit to value 300
Set parameter SoftMemLimit to value 125
Set parameter MIPFocus to value 1
Set parameter LogFile to value 1202-MIPFocus1-Presolve1-TimeLimit300-k16x240-6.log
Set parameter Presolve to value 1
Set parameter Seed to value 6
Using license file /opt/gurobi/gurobi.lic

Gurobi Optimizer version 12.0.2 build v12.0.2rc0 (linux64 - "Ubuntu 22.04.4 LTS")
Copyright (c) 2025, Gurobi Optimization, LLC

Read MPS format model from file /nfs/models/miplib2010/k16x240.mps.bz2
Reading time = 0.00 seconds
k16x240: 256 rows, 480 columns, 960 nonzeros

Using Gurobi shared library /nfs/shared/static-builds/gurobi1202

CPU model: Intel(R) Xeon(R) E-2388G CPU @ 3.20GHz, instruction set [SSE2|AVX|AVX2|AVX512]
Thread count: 8 physical cores, 16 logical processors, using up to 16 threads

Non-default parameters:
TimeLimit  300
SoftMemLimit  125
MIPFocus  1
Presolve  1
Seed  6

Optimize a model with 256 rows, 480 columns and 960 nonzeros
Model fingerprint: 0x4e80885f
Variable types: 240 continuous, 240 integer (240 binary)
Coefficient statistics:
  Matrix range     [1e+00, 1e+03]
  Objective range  [1e+00, 1e+03]
  Bounds range     [1e+00, 1e+03]
  RHS range        [4e+00, 4e+02]
Found heuristic solution: objective 19315.000000
Presolve time: 0.00s
Presolved: 256 rows, 480 columns, 960 nonzeros
Variable types: 240 continuous, 240 integer (240 binary)

Root relaxation: objective 2.769838e+03, 51 iterations, 0.00 seconds (0.00 work units)

    Nodes    |    Current Node    |     Objective Bounds      |     Work
 Expl Unexpl |  Obj  Depth IntInf | Incumbent    BestBd   Gap | It/Node Time

     0     0 2769.83800    0   14 19315.0000 2769.83800  85.7%     -    0s
H    0     0                    11359.000000 2769.83800  75.6%     -    0s
H    0     0                    11195.000000 2769.83800  75.3%     -    0s
H    0     0                    11088.000000 2769.83800  75.0%     -    0s
H    0     0                    11074.000000 8084.69631  27.0%     -    0s
     0     0 8084.69631    0   26 11074.0000 8084.69631  27.0%     -    0s
H    0     0                    11020.000000 8084.69631  26.6%     -    0s
H    0     0                    11013.000000 8084.69631  26.6%     -    0s
H    0     0                    10916.000000 8084.69631  25.9%     -    0s
     0     0 8528.16906    0   24 10916.0000 8528.16906  21.9%     -    0s
     0     0 8539.49533    0   34 10916.0000 8539.49533  21.8%     -    0s
     0     0 8548.03675    0   29 10916.0000 8548.03675  21.7%     -    0s
     0     0 8786.85987    0   39 10916.0000 8786.85987  19.5%     -    0s
H    0     0                    10877.000000 8786.85987  19.2%     -    0s
H    0     0                    10834.000000 8786.85987  18.9%     -    0s
H    0     0                    10746.000000 8786.85987  18.2%     -    0s
     0     0 8810.84146    0   33 10746.0000 8810.84146  18.0%     -    0s
     0     0 8822.24979    0   35 10746.0000 8822.24979  17.9%     -    0s
     0     0 8825.45627    0   38 10746.0000 8825.45627  17.9%     -    0s
     0     0 8825.72124    0   37 10746.0000 8825.72124  17.9%     -    0s
     0     0 8920.14776    0   29 10746.0000 8920.14776  17.0%     -    0s
     0     0 8941.54669    0   41 10746.0000 8941.54669  16.8%     -    0s
     0     0 8943.41988    0   38 10746.0000 8943.41988  16.8%     -    0s
     0     0 9033.47564    0   44 10746.0000 9033.47564  15.9%     -    0s
H    0     0                    10732.000000 9033.47564  15.8%     -    0s
H    0     0                    10681.000000 9033.88940  15.4%     -    0s
H    0     2                    10674.000000 9033.88940  15.4%     -    0s
     0     2 9033.88940    0   44 10674.0000 9033.88940  15.4%     -    0s
 27377 13215 10195.0674   28   15 10674.0000 9890.17605  7.34%  23.3    5s
 76677 31054 infeasible   39      10674.0000 10033.5643  6.00%  22.6   10s
 129736 44113     cutoff   41      10674.0000 10112.1564  5.26%  22.1   15s
 171885 53860 10615.4142   31    9 10674.0000 10159.9281  4.82%  21.6   20s
 226584 59242 10574.7635   39   18 10674.0000 10205.1892  4.39%  21.4   25s
 279851 64446 10585.1054   38    3 10674.0000 10250.4824  3.97%  21.0   30s
 336712 67053     cutoff   43      10674.0000 10293.6259  3.56%  20.5   35s
 389661 66620 10462.4107   38   19 10674.0000 10331.0400  3.21%  20.2   40s
 446907 62460 10397.8976   38   13 10674.0000 10370.1228  2.85%  19.8   45s
 505533 52591     cutoff   33      10674.0000 10414.5003  2.43%  19.4   50s
 562161 35093     cutoff   53      10674.0000 10468.9500  1.92%  19.2   55s

Cutting planes:
  Gomory: 6
  Lift-and-project: 17
  Cover: 8
  Implied bound: 9
  Dual implied bound: 41
  MIR: 149
  Flow cover: 299
  Flow path: 60
  Inf proof: 8
  Zero half: 1
  Network: 59
  Relax-and-lift: 4

Explored 621145 nodes (11538515 simplex iterations) in 59.17 seconds (64.75 work units)
Thread count was 16 (of 16 available processors)

Solution count 10: 10674 10681 10732 ... 11074

Optimal solution found (tolerance 1.00e-04)
Best objective 1.067400000000e+04, best bound 1.067400000000e+04, gap 0.0000%
